instances/A-n5-k2-m3-b2ampl_.txt
set K:= 1	2;
set C_H:= 1	2	3;
set C_S:= 4;
set C_F:= 5;
set M:= 6	7	8	9	10	11;
set L_B:= 12	13;
set A1:=
(0,*) 1 2 3 5 6 7 8 9 10 11 12 13
(1,*) 0 2 3 5 6 7 8 9 10 11 12 13
(2,*) 0 1 3 5 6 7 8 9 10 11 12 13
(3,*) 0 1 2 5 6 7 8 9 10 11 12 13
(5,*) 0 1 2 3 6 7 8 9 10 11 12 13
(6,*) 0 1 2 3 5 7 8 9 10 11 12 13
(7,*) 0 1 2 3 5 6 8 9 10 11 12 13
(8,*) 0 1 2 3 5 6 7 9 10 11 12 13
(9,*) 0 1 2 3 5 6 7 8 10 11 12 13
(10,*) 0 1 2 3 5 6 7 8 9 11 12 13
(11,*) 0 1 2 3 5 6 7 8 9 10 12 13
(12,*) 0 1 2 3 5 6 7 8 9 10 11 13
(13,*) 0 1 2 3 5 6 7 8 9 10 11 12
;
set A2:=
(6,*) 7
(7,*) 6
(8,*) 9
(9,*) 8
(10,*) 11
(11,*) 10
;
param BigM:=99999;
param n:= 2;
param d:=
1	2
2	19
3	21
4	14
5	7
;
param Q:=100;
param w:=
[6,*] 7 0.1
[7,*] 6 0.1
[8,*] 9 0.1
[9,*] 8 0.1
[10,*] 11 0.1
[11,*] 10 0.1
;
param V:=
[6,*] 7 95
[7,*] 6 95
[8,*] 9 94
[9,*] 8 94
[10,*] 11 95
[11,*] 10 95
;
param e:
	6	7	8	9	10	11	12	13:=
4		0		0		0		0		1		0		0		0	
5		0		0		0		1		0		0		0		0	
;
param p:=
1	3
2	3
;
param G:=
6	95
7	76
8	94
9	78
10	95
11	78
12	87
13	87
;
param s:=
0	0
1	10
2	10
3	10
5	10
6	10
7	10
8	10
9	10
10	10
11	10
12	10
13	10
;
param t:
	0	1	2	3	4	5	6	7	8	9	10	11	12	13:=
0	0.0	62.29	97.58	77.88	16.28	54.57	20.81	83.49	64.94	61.19	13.0	62.8	41.87	42.72
1	62.29	0.0	63.39	71.59	65.76	21.02	48.47	55.23	93.24	18.11	59.77	76.42	36.62	23.77
2	97.58	63.39	0.0	37.05	89.4	83.55	96.25	14.42	80.16	81.5	103.23	59.41	55.97	61.29
3	77.88	71.59	37.05	0.0	65.19	86.59	84.34	26.93	43.57	87.6	87.28	23.77	44.0	56.57
4	16.28	65.76	89.4	65.19	0.0	63.06	34.41	75.0	48.66	68.94	29.12	47.8	36.69	43.01
5	54.57	21.02	83.55	86.59	63.06	0.0	36.01	74.11	100.12	7.07	48.01	86.45	45.18	30.87
6	20.81	48.47	96.25	84.34	34.41	36.01	0.0	83.24	80.99	43.0	12.0	74.33	41.79	35.47
7	83.49	55.23	14.42	26.93	75.0	74.11	83.24	0.0	68.07	73.06	89.63	47.01	42.2	49.04
8	64.94	93.24	80.16	43.57	48.66	100.12	80.99	68.07	0.0	104.0	77.67	21.1	56.73	70.72
9	61.19	18.11	81.5	87.6	68.94	7.07	43.0	73.06	104.0	0.0	55.0	89.31	48.01	33.6
10	13.0	59.77	103.23	87.28	29.12	48.01	12.0	89.63	77.67	55.0	0.0	74.17	47.43	44.2
11	62.8	76.42	59.41	23.77	47.8	86.45	74.33	47.01	21.1	89.31	74.17	0.0	41.34	55.76
12	41.87	36.62	55.97	44.0	36.69	45.18	41.79	42.2	56.73	48.01	47.43	41.34	0.0	14.42
13	42.72	23.77	61.29	56.57	43.01	30.87	35.47	49.04	70.72	33.6	44.2	55.76	14.42	0.0
;
