ampl_outputs/A-n5-k2-m3-b2ampl_.txt.out
Gurobi 12.0.3:   lim:time = 14400
  mip:bestbound = 1
Set parameter LogToConsole to value 1
  tech:outlev = 1
Set parameter InfUnbdInfo to value 1
Gurobi Optimizer version 12.0.3 build v12.0.3rc0 (win64 - Windows 11.0 (26100.2))

CPU model: 12th Gen Intel(R) Core(TM) i7-12700, instruction set [SSE2|AVX|AVX2]
Thread count: 12 physical cores, 20 logical processors, using up to 20 threads

Non-default parameters:
TimeLimit  14400
InfUnbdInfo  1

Optimize a model with 212 rows, 280 columns and 1414 nonzeros
Model fingerprint: 0x45699c18
Model has 3 quadratic objective terms
Model has 8 quadratic constraints
Variable types: 23 continuous, 257 integer (0 binary)
Coefficient statistics:
  Matrix range     [1e+00, 1e+05]
  QMatrix range    [1e+00, 1e+00]
  QLMatrix range   [1e+00, 2e+01]
  Objective range  [1e+01, 1e+02]
  QObjective range [1e+00, 1e+00]
  Bounds range     [1e+00, 8e+01]
  RHS range        [1e+00, 1e+05]
  QRHS range       [1e+02, 1e+02]
Presolve removed 21 rows and 40 columns
Presolve time: 0.01s
Presolved: 313 rows, 357 columns, 1928 nonzeros
Variable types: 12 continuous, 345 integer (324 binary)
Found heuristic solution: objective 363.3500000

Root relaxation: objective 1.145589e+02, 41 iterations, 0.00 seconds (0.00 work units)

    Nodes    |    Current Node    |     Objective Bounds      |     Work
 Expl Unexpl |  Obj  Depth IntInf | Incumbent    BestBd   Gap | It/Node Time

     0     0  114.55890    0   15  363.35000  114.55890  68.5%     -    0s
H    0     0                     266.3000000  114.55890  57.0%     -    0s
     0     0  146.50000    0   11  266.30000  146.50000  45.0%     -    0s
     0     0  172.88333    0   14  266.30000  172.88333  35.1%     -    0s
     0     0  174.27013    0   16  266.30000  174.27013  34.6%     -    0s
H    0     0                     259.1800000  174.27013  32.8%     -    0s
H    0     0                     251.7200000  174.27013  30.8%     -    0s
     0     0  174.43000    0    7  251.72000  174.43000  30.7%     -    0s
     0     0  174.43000    0    6  251.72000  174.43000  30.7%     -    0s
     0     0  174.43192    0   21  251.72000  174.43192  30.7%     -    0s
     0     0  178.73500    0   20  251.72000  178.73500  29.0%     -    0s
H    0     0                     247.5300000  180.59500  27.0%     -    0s
     0     0  180.59500    0   20  247.53000  180.59500  27.0%     -    0s
     0     0  180.59500    0   22  247.53000  180.59500  27.0%     -    0s
     0     0  180.59500    0   10  247.53000  180.59500  27.0%     -    0s
     0     0  183.04000    0   15  247.53000  183.04000  26.1%     -    0s
     0     0  183.04000    0   14  247.53000  183.04000  26.1%     -    0s
     0     0  183.04000    0   22  247.53000  183.04000  26.1%     -    0s
H    0     0                     244.8500000  183.04000  25.2%     -    0s
     0     0  183.04000    0   18  244.85000  183.04000  25.2%     -    0s
     0     0  183.04000    0   20  244.85000  183.04000  25.2%     -    0s
H    0     0                     229.0800000  183.04000  20.1%     -    0s
     0     0  183.04000    0   20  229.08000  183.04000  20.1%     -    0s
     0     0  183.04000    0   20  229.08000  183.04000  20.1%     -    0s
     0     0  183.04000    0   14  229.08000  183.04000  20.1%     -    0s
     0     0  183.04000    0   15  229.08000  183.04000  20.1%     -    0s
     0     0  183.04000    0   19  229.08000  183.04000  20.1%     -    0s
     0     0  183.04000    0   20  229.08000  183.04000  20.1%     -    0s
     0     0  183.04000    0   10  229.08000  183.04000  20.1%     -    0s
     0     0  183.04000    0   21  229.08000  183.04000  20.1%     -    0s
     0     0  183.04000    0   21  229.08000  183.04000  20.1%     -    0s
     0     0  203.21000    0   10  229.08000  203.21000  11.3%     -    0s
     0     0  229.08000    0   12  229.08000  229.08000  0.00%     -    0s

Cutting planes:
  Learned: 3
  Gomory: 2
  Cover: 1
  Implied bound: 2
  MIR: 3
  Inf proof: 1
  RLT: 4
  Relax-and-lift: 1

Explored 1 nodes (427 simplex iterations) in 0.19 seconds (0.11 work units)
Thread count was 20 (of 20 available processors)

Solution count 7: 229.08 244.85 247.53 ... 363.35

Optimal solution found (tolerance 1.00e-04)
Best objective 2.290800000000e+02, best bound 2.290800000000e+02, gap 0.0000%

AMPL MP initial flat model has 280 variables (0 integer, 257 binary);
Objectives: 1 quadratic; 
Constraints:  212 linear; 8 quadratic;

AMPL MP final model has 280 variables (0 integer, 257 binary);
Objectives: 1 quadratic; 
Constraints:  212 linear; 8 quadratic;


-----RESULTS INFO-----
running_time:  0.203
TC.best_bound:  229.08
TC:  229.07999999999998
MIP Gap (%):  1.2406892539900474e-14
=== Vehicle Routes ===
Vehicle 1: 0 → 14
Vehicle 2: 0 → 1
Vehicle 2: 1 → 2
Vehicle 2: 2 → 3
Vehicle 2: 3 → 9
Vehicle 2: 6 → 14
Vehicle 2: 9 → 6

=== Full Vehicle Routes ===
Vehicle 1: 0 → 0 (0<100)
Vehicle 2: 0 → 1 → 2 → 3 → 9 → 6 → 0 (65<100)
Arc used by MRT line: y variables:
MRT used: 6 → 7
MRT used: 9 → 8
Customer assigment to PL: u variables:
4 7
5 8
Node is served by regular vehicle: g variables:
1
2
3
6
9
Customer assigment to Home delivery: gm variables:
1
2
3
Node total demands: ntd variables:
1 14 1
2 4 1
3 22 1
5 0 0
12 0 0
13 0 0
6 6 1
7 0 0
8 0 0
9 19 1
10 0 0
11 0 0
Customer's demand delivered to PL: l variables:
4
5
Lockers load <= capacity:
0 <= 98
0 <= 83
0 <= 86
6 <= 76
19 <= 71
0 <= 84
0 <= 94
0 <= 72
